97 65 50 81 9 33 54 71 84 92 96 95 87 78 56 44 5 77 40 80 0 85 61 47 74 24 86 48 45 41 94 67 73 26 19 22 12 2 38 4 17 43 25 11 88 27 66 72 91 39 34 79 46 82 16 55 64 15 62 28 69 23 58 98 42 18 6 31 99 75 14 63 37 90 68 1 93 3 29 20 53 52 59 89 7 32 10 60 13 57 21 83 70 36 49 51 8 35 76 30 

